certificates/rado_a9_c83_N17.cnf
c Rad2 upper bound instance: x1 + 9*x2 - x3 = 83, interval [1,17]
p cnf 17 64
1 8 10 0
-1 -8 -10 0
1 11 17 0
-1 -11 -17 0
2 9 10 0
-2 -9 -10 0
1 3 9 0
-1 -3 -9 0
3 10 0
-3 -10 0
2 4 9 0
-2 -4 -9 0
4 10 11 0
-4 -10 -11 0
3 5 9 0
-3 -5 -9 0
5 10 12 0
-5 -10 -12 0
4 6 9 0
-4 -6 -9 0
6 10 13 0
-6 -10 -13 0
5 7 9 0
-5 -7 -9 0
7 10 14 0
-7 -10 -14 0
6 8 9 0
-6 -8 -9 0
8 10 15 0
-8 -10 -15 0
7 9 0
-7 -9 0
9 10 16 0
-9 -10 -16 0
8 9 10 0
-8 -9 -10 0
10 17 0
-10 -17 0
9 11 0
-9 -11 0
1 8 12 0
-1 -8 -12 0
9 10 12 0
-9 -10 -12 0
2 8 13 0
-2 -8 -13 0
9 11 13 0
-9 -11 -13 0
3 8 14 0
-3 -8 -14 0
9 12 14 0
-9 -12 -14 0
4 8 15 0
-4 -8 -15 0
9 13 15 0
-9 -13 -15 0
5 8 16 0
-5 -8 -16 0
9 14 16 0
-9 -14 -16 0
6 8 17 0
-6 -8 -17 0
9 15 17 0
-9 -15 -17 0
