certificates/rado_a9_c83_N17.drat
9 -17 0
-17 0
10 0
-3 0
8 2 0
d 8 13 2 0
-9 0
7 0
11 0
1 0
15 0
5 0
-14 0
-4 0
-8 0
-12 0
16 0
0
